100
32
32
5
9
26
26
4
1
3
15
15
1
26
12
26
15
22
17
21
10
2
16
10
17
18
12
22
19
1
2
8
21
5
22
10
32
6
5
20
22
10
2
27
22
2
24
15
24
25
15
15
14
7
1
8
18
2
23
14
2
31
22
12
28
27
17
23
19
15
24
5
6
10
5
23
9
17
6
5
4
23
10
13
23
25
11
12
6
6
1
10
11
4
14
9
3
19
2
21
9
13